% seed = 2136593

mint = 55;
% maxt = 217;

nActs = 42;
dur = [0,4,5,5,9,2,6,6,4,2,8,10,4,1,4,7,2,6,3,3,7,7,10,7,4,4,9,3,7,2,5,10,10,8,3,5,4,2,8,8,3,0];

nSkills = 4;
sreq = [| 0,0,0,0,
	| 0,5,5,0,
	| 0,4,4,0,
	| 2,2,0,0,
	| 0,4,5,0,
	| 0,2,0,5,
	| 7,0,5,0,
	| 1,4,0,0,
	| 5,4,0,0,
	| 3,0,0,6,
	| 0,6,4,0,
	| 3,0,0,3,
	| 2,0,0,3,
	| 0,0,3,4,
	| 0,5,0,3,
	| 5,0,0,3,
	| 6,2,0,0,
	| 0,0,5,4,
	| 0,0,4,5,
	| 0,5,0,5,
	| 0,0,4,7,
	| 6,0,0,2,
	| 4,0,2,0,
	| 3,5,0,0,
	| 6,0,0,4,
	| 2,0,0,1,
	| 4,0,0,2,
	| 7,5,0,0,
	| 3,0,4,0,
	| 3,3,0,0,
	| 4,7,0,0,
	| 0,0,4,5,
	| 1,0,0,5,
	| 0,6,4,0,
	| 5,0,3,0,
	| 5,0,3,0,
	| 6,0,0,2,
	| 5,1,0,0,
	| 5,0,0,5,
	| 4,3,0,0,
	| 0,2,0,5,
	| 0,0,0,0, |];

nResources = 25;
mastery = [| false,true,false,false,
	| true,true,false,false,
	| false,false,true,false,
	| true,false,true,true,
	| false,true,false,true,
	| true,true,true,false,
	| false,false,false,true,
	| false,true,true,true,
	| true,true,true,false,
	| false,false,false,true,
	| true,true,true,false,
	| true,true,true,false,
	| false,false,false,true,
	| false,false,false,true,
	| false,true,true,false,
	| false,true,false,true,
	| false,true,false,false,
	| false,true,false,false,
	| false,false,false,true,
	| true,false,false,false,
	| false,true,true,true,
	| true,false,true,false,
	| false,false,true,false,
	| false,false,true,false,
	| true,false,true,true, |];

nPrecs = 85;
pred = [1,1,1,2,2,2,3,3,3,4,4,4,5,5,5,6,6,6,7,7,7,8,8,8,9,9,9,10,10,10,11,11,11,12,12,12,13,13,13,14,14,14,15,15,16,16,16,17,18,19,19,20,20,21,21,21,22,22,23,23,23,24,25,26,26,27,28,28,29,29,30,30,30,31,32,33,33,34,35,36,37,38,39,40,41];
succ = [2,3,4,11,20,23,10,6,7,21,5,8,25,27,28,19,21,16,9,25,14,13,38,40,19,28,15,34,28,23,12,22,30,32,15,16,25,27,39,17,35,20,26,29,17,24,40,18,29,33,20,37,24,26,30,32,27,31,35,30,31,26,32,34,36,35,39,31,36,37,33,36,39,33,34,41,40,37,38,38,41,41,42,42,42];

nUnrels = 431;
unpred = [2,2,2,2,2,2,2,2,2,2,2,2,2,2,3,3,3,3,3,3,3,3,4,4,4,4,4,4,4,4,4,4,4,4,4,4,4,4,4,5,5,5,5,5,5,5,5,5,5,5,5,5,5,5,5,5,5,5,5,5,5,5,6,6,6,6,6,6,6,6,6,6,6,6,6,6,6,6,7,7,7,7,7,7,7,7,7,7,7,8,8,8,8,8,8,8,8,8,8,8,8,8,8,8,8,8,8,8,8,8,8,9,9,9,9,9,9,9,9,9,9,9,9,9,9,9,9,10,10,10,10,10,10,10,10,10,10,10,10,10,10,10,10,10,10,11,11,11,11,11,11,11,11,12,12,12,12,12,12,12,12,12,12,12,12,12,12,12,13,13,13,13,13,13,13,13,13,13,13,13,13,13,13,13,13,13,13,14,14,14,14,14,14,14,14,14,14,14,14,14,14,14,15,15,15,15,15,15,15,15,15,15,15,15,15,15,15,15,15,15,15,16,16,16,16,16,16,16,16,16,16,16,16,16,16,17,17,17,17,17,17,17,17,17,17,17,17,17,17,17,17,17,17,18,18,18,18,18,18,18,18,18,18,18,18,18,18,18,18,18,18,19,19,19,19,19,19,19,19,19,19,19,19,20,20,20,20,20,20,20,20,20,20,20,20,20,20,21,21,21,21,21,21,21,21,21,22,22,22,22,22,22,22,22,22,22,22,22,23,23,23,23,23,23,23,23,23,24,24,24,24,24,24,24,24,24,24,24,25,25,25,25,25,25,25,25,25,25,25,25,26,26,26,26,26,26,26,26,26,26,27,27,27,27,27,27,27,27,27,27,27,28,28,28,28,28,28,28,28,29,29,29,29,29,29,29,29,30,30,30,30,30,31,31,31,31,31,31,31,32,32,32,32,32,32,33,33,33,33,33,33,34,34,34,34,34,35,35,35,35,36,36,36,37,37,37,38,38,39,39,40];
unsucc = [3,4,5,6,7,8,9,10,13,14,19,21,25,28,4,5,8,11,12,13,22,27,6,7,9,10,11,12,14,15,16,17,18,19,20,22,23,24,29,6,7,8,9,10,11,12,13,14,15,16,17,18,19,20,21,22,23,24,26,29,30,36,7,8,9,10,11,12,13,14,15,22,23,25,27,28,31,35,8,10,11,12,13,16,21,22,23,27,30,9,10,11,12,14,15,16,17,18,19,20,21,22,23,24,26,28,29,30,31,33,36,10,11,12,13,14,16,17,18,21,22,23,25,27,30,32,35,11,12,13,14,15,16,17,18,19,20,21,22,24,25,26,27,29,32,13,14,19,20,21,23,25,28,13,14,19,20,21,22,23,25,27,28,30,31,33,35,39,14,15,16,17,18,19,20,21,22,23,24,26,28,29,30,31,33,36,40,15,16,19,21,22,23,25,27,28,30,31,32,33,39,40,16,17,18,19,20,21,22,23,24,25,27,28,30,31,32,33,35,39,40,19,20,21,22,23,25,27,28,30,31,32,33,35,39,19,20,21,22,23,24,25,26,27,28,30,31,32,33,34,35,39,40,19,20,21,22,23,24,25,26,27,28,30,31,32,33,34,35,39,40,21,22,23,25,27,28,29,30,31,32,35,39,21,22,23,25,27,28,29,30,31,32,33,35,39,40,22,23,24,25,27,28,29,31,35,23,24,25,26,28,29,30,32,34,36,37,39,24,25,26,27,28,29,32,34,37,25,27,28,29,30,31,32,33,35,39,40,26,27,28,29,30,31,33,35,36,38,39,40,27,28,29,30,31,32,33,35,39,40,28,29,30,31,32,33,34,36,37,39,40,29,30,32,34,35,36,37,38,30,31,32,33,34,35,39,40,31,32,34,35,37,32,34,35,36,37,38,39,33,35,36,38,39,40,34,35,36,37,38,39,35,36,38,39,40,36,37,39,40,37,39,40,38,39,40,39,40,40,41,41];

USEFUL_RES = [{},
	{1,2,3,4,5,6,8,9,11,12,15,16,17,18,21,22,23,24,25},
	{1,2,3,4,5,6,8,9,11,12,15,16,17,18,21,22,23,24,25},
	{1,2,4,5,6,8,9,11,12,15,16,17,18,20,21,22,25},
	{1,2,3,4,5,6,8,9,11,12,15,16,17,18,21,22,23,24,25},
	{1,2,4,5,6,7,8,9,10,11,12,13,14,15,16,17,18,19,21,25},
	{2,3,4,6,8,9,11,12,15,20,21,22,23,24,25},
	{1,2,4,5,6,8,9,11,12,15,16,17,18,20,21,22,25},
	{1,2,4,5,6,8,9,11,12,15,16,17,18,20,21,22,25},
	{2,4,5,6,7,8,9,10,11,12,13,14,16,19,20,21,22,25},
	{1,2,3,4,5,6,8,9,11,12,15,16,17,18,21,22,23,24,25},
	{2,4,5,6,7,8,9,10,11,12,13,14,16,19,20,21,22,25},
	{2,4,5,6,7,8,9,10,11,12,13,14,16,19,20,21,22,25},
	{3,4,5,6,7,8,9,10,11,12,13,14,15,16,19,21,22,23,24,25},
	{1,2,4,5,6,7,8,9,10,11,12,13,14,15,16,17,18,19,21,25},
	{2,4,5,6,7,8,9,10,11,12,13,14,16,19,20,21,22,25},
	{1,2,4,5,6,8,9,11,12,15,16,17,18,20,21,22,25},
	{3,4,5,6,7,8,9,10,11,12,13,14,15,16,19,21,22,23,24,25},
	{3,4,5,6,7,8,9,10,11,12,13,14,15,16,19,21,22,23,24,25},
	{1,2,4,5,6,7,8,9,10,11,12,13,14,15,16,17,18,19,21,25},
	{3,4,5,6,7,8,9,10,11,12,13,14,15,16,19,21,22,23,24,25},
	{2,4,5,6,7,8,9,10,11,12,13,14,16,19,20,21,22,25},
	{2,3,4,6,8,9,11,12,15,20,21,22,23,24,25},
	{1,2,4,5,6,8,9,11,12,15,16,17,18,20,21,22,25},
	{2,4,5,6,7,8,9,10,11,12,13,14,16,19,20,21,22,25},
	{2,4,5,6,7,8,9,10,11,12,13,14,16,19,20,21,22,25},
	{2,4,5,6,7,8,9,10,11,12,13,14,16,19,20,21,22,25},
	{1,2,4,5,6,8,9,11,12,15,16,17,18,20,21,22,25},
	{2,3,4,6,8,9,11,12,15,20,21,22,23,24,25},
	{1,2,4,5,6,8,9,11,12,15,16,17,18,20,21,22,25},
	{1,2,4,5,6,8,9,11,12,15,16,17,18,20,21,22,25},
	{3,4,5,6,7,8,9,10,11,12,13,14,15,16,19,21,22,23,24,25},
	{2,4,5,6,7,8,9,10,11,12,13,14,16,19,20,21,22,25},
	{1,2,3,4,5,6,8,9,11,12,15,16,17,18,21,22,23,24,25},
	{2,3,4,6,8,9,11,12,15,20,21,22,23,24,25},
	{2,3,4,6,8,9,11,12,15,20,21,22,23,24,25},
	{2,4,5,6,7,8,9,10,11,12,13,14,16,19,20,21,22,25},
	{1,2,4,5,6,8,9,11,12,15,16,17,18,20,21,22,25},
	{2,4,5,6,7,8,9,10,11,12,13,14,16,19,20,21,22,25},
	{1,2,4,5,6,8,9,11,12,15,16,17,18,20,21,22,25},
	{1,2,4,5,6,7,8,9,10,11,12,13,14,15,16,17,18,19,21,25},
	{}];

POTENTIAL_ACT = [{2,3,4,5,6,8,9,11,15,17,20,24,28,30,31,34,38,40,41},
	{2,3,4,5,6,7,8,9,10,11,12,13,15,16,17,20,22,23,24,25,26,27,28,29,30,31,33,34,35,36,37,38,39,40,41},
	{2,3,5,7,11,14,18,19,21,23,29,32,34,35,36},
	{2,3,4,5,6,7,8,9,10,11,12,13,14,15,16,17,18,19,20,21,22,23,24,25,26,27,28,29,30,31,32,33,34,35,36,37,38,39,40,41},
	{2,3,4,5,6,8,9,10,11,12,13,14,15,16,17,18,19,20,21,22,24,25,26,27,28,30,31,32,33,34,37,38,39,40,41},
	{2,3,4,5,6,7,8,9,10,11,12,13,14,15,16,17,18,19,20,21,22,23,24,25,26,27,28,29,30,31,32,33,34,35,36,37,38,39,40,41},
	{6,10,12,13,14,15,16,18,19,20,21,22,25,26,27,32,33,37,39,41},
	{2,3,4,5,6,7,8,9,10,11,12,13,14,15,16,17,18,19,20,21,22,23,24,25,26,27,28,29,30,31,32,33,34,35,36,37,38,39,40,41},
	{2,3,4,5,6,7,8,9,10,11,12,13,14,15,16,17,18,19,20,21,22,23,24,25,26,27,28,29,30,31,32,33,34,35,36,37,38,39,40,41},
	{6,10,12,13,14,15,16,18,19,20,21,22,25,26,27,32,33,37,39,41},
	{2,3,4,5,6,7,8,9,10,11,12,13,14,15,16,17,18,19,20,21,22,23,24,25,26,27,28,29,30,31,32,33,34,35,36,37,38,39,40,41},
	{2,3,4,5,6,7,8,9,10,11,12,13,14,15,16,17,18,19,20,21,22,23,24,25,26,27,28,29,30,31,32,33,34,35,36,37,38,39,40,41},
	{6,10,12,13,14,15,16,18,19,20,21,22,25,26,27,32,33,37,39,41},
	{6,10,12,13,14,15,16,18,19,20,21,22,25,26,27,32,33,37,39,41},
	{2,3,4,5,6,7,8,9,11,14,15,17,18,19,20,21,23,24,28,29,30,31,32,34,35,36,38,40,41},
	{2,3,4,5,6,8,9,10,11,12,13,14,15,16,17,18,19,20,21,22,24,25,26,27,28,30,31,32,33,34,37,38,39,40,41},
	{2,3,4,5,6,8,9,11,15,17,20,24,28,30,31,34,38,40,41},
	{2,3,4,5,6,8,9,11,15,17,20,24,28,30,31,34,38,40,41},
	{6,10,12,13,14,15,16,18,19,20,21,22,25,26,27,32,33,37,39,41},
	{4,7,8,9,10,12,13,16,17,22,23,24,25,26,27,28,29,30,31,33,35,36,37,38,39,40},
	{2,3,4,5,6,7,8,9,10,11,12,13,14,15,16,17,18,19,20,21,22,23,24,25,26,27,28,29,30,31,32,33,34,35,36,37,38,39,40,41},
	{2,3,4,5,7,8,9,10,11,12,13,14,16,17,18,19,21,22,23,24,25,26,27,28,29,30,31,32,33,34,35,36,37,38,39,40},
	{2,3,5,7,11,14,18,19,21,23,29,32,34,35,36},
	{2,3,5,7,11,14,18,19,21,23,29,32,34,35,36},
	{2,3,4,5,6,7,8,9,10,11,12,13,14,15,16,17,18,19,20,21,22,23,24,25,26,27,28,29,30,31,32,33,34,35,36,37,38,39,40,41}];
